c 1 GPL
c 2 Prime
c 3 StrongConnect
c 4 Unweighted
c 5 Connected
c 6 Src
c 7 Wgt
c 8 MainGpl
c 9 StronglyConnected
c 10 Transpose
c 11 Directed
c 12 Edges
c 13 Cycle
c 14 BFS
c 15 MST
c 16 DFS
c 17 Algorithms
c 18 Kruskal
c 19 Weighted
c 20 Number
c 21 Undirected
c 22 ShortestPath
p cnf 22 47
1 0
1 -8 0
3 -10 0
3 -9 0
10 -3 0
9 -3 0
6 -14 0
6 -16 0
14 16 -6 0
-14 -16 0
7 -19 0
7 -4 0
19 4 -7 0
-19 -4 0
8 -17 0
8 -6 0
8 -7 0
8 -12 0
17 -8 0
7 -8 0
12 -8 0
12 -21 0
12 -11 0
21 11 -12 0
-21 -11 0
15 -2 0
15 -18 0
2 18 -15 0
-2 -18 0
17 -20 0
17 -5 0
17 -3 0
17 -13 0
17 -15 0
17 -22 0
20 5 3 13 15 22 -17 0
-13 11 0
-22 11 0
-22 19 0
-5 21 0
-5 6 0
-3 11 0
-3 16 0
-18 11 0
-18 19 0
-2 11 0
-2 19 0
